62 16 57 41 74 17 70 
36 28 54 
5 34 44 
37 
63 42 27 30 29 43 31 
38 60 
23 26 
72 
47 64 13 
18 67 2 59 49 
10 20 68 7 
45 15 75 
14 69 
65 39 11 12 51 19 48 22 53 8 46 3 55 56 4 24 50 
1 33 52 71 61 40 73 6 9 21 66 32 35 58 25 

